(set-logic QF_BV)

(declare-const __ESBMC_ptr_obj_start_0 (_ BitVec 64))

(declare-const __ESBMC_ptr_obj_end_0 (_ BitVec 64))

(declare-const __ESBMC_ptr_obj_start_1 (_ BitVec 64))

(declare-const __ESBMC_ptr_obj_end_1 (_ BitVec 64))

(declare-const |smt_conv::__ESBMC_ptr_addr_range_0..start0| (_ BitVec 64))

(declare-const |smt_conv::__ESBMC_ptr_addr_range_0..end0| (_ BitVec 64))

(declare-const |smt_conv::__ESBMC_ptr_addr_range_1..start0| (_ BitVec 64))

(declare-const |smt_conv::__ESBMC_ptr_addr_range_1..end0| (_ BitVec 64))

(declare-const |smt_conv::smt_conv::collate_array_vals::3..start0| (_ BitVec 64))

(declare-const |smt_conv::smt_conv::collate_array_vals::3..end0| (_ BitVec 64))

(declare-const |smt_conv::smt_conv::collate_array_vals::4..start0| (_ BitVec 64))

(declare-const |smt_conv::smt_conv::collate_array_vals::4..end0| (_ BitVec 64))

(declare-const |smt_conv::smt_conv::collate_array_vals::7..start0| (_ BitVec 64))

(declare-const |smt_conv::smt_conv::collate_array_vals::7..end0| (_ BitVec 64))

(declare-const |c:NonTerminationSimple7.c@164@F@main@x?1!0&0#1| (_ BitVec 32))

(declare-const |nondet$symex::nondet100| (_ BitVec 32))

(declare-const |c:NonTerminationSimple7.c@164@F@main@c?1!0&0#1| (_ BitVec 32))

(declare-const |nondet$symex::nondet101| (_ BitVec 32))

(declare-const |goto_symex::guard?0!0&0#1| (_ BitVec 1))

(declare-const |goto_symex::guard?0!0&0#2| (_ BitVec 1))

(declare-const |execution_statet::guard_exec?0!0| (_ BitVec 1))

(declare-const |c:NonTerminationSimple7.c@164@F@main@x?1!0&0#2| (_ BitVec 32))

(declare-const |goto_symex::guard?0!0&0#3| (_ BitVec 1))

(declare-const |c:NonTerminationSimple7.c@164@F@main@x?1!0&0#3| (_ BitVec 32))

(declare-const |goto_symex::guard?0!0&0#4| (_ BitVec 1))

(declare-const |c:NonTerminationSimple7.c@164@F@main@x?1!0&0#4| (_ BitVec 32))

(declare-const |goto_symex::guard?0!0&0#5| (_ BitVec 1))

(declare-const |c:NonTerminationSimple7.c@164@F@main@x?1!0&0#5| (_ BitVec 32))

(declare-const |goto_symex::guard?0!0&0#6| (_ BitVec 1))

(declare-const |c:NonTerminationSimple7.c@164@F@main@x?1!0&0#6| (_ BitVec 32))

(declare-const |goto_symex::guard?0!0&0#7| (_ BitVec 1))

(declare-const |c:NonTerminationSimple7.c@164@F@main@x?1!0&0#7| (_ BitVec 32))

(declare-const |goto_symex::guard?0!0&0#8| (_ BitVec 1))

(declare-const |c:NonTerminationSimple7.c@164@F@main@x?1!0&0#8| (_ BitVec 32))

(declare-const |goto_symex::guard?0!0&0#9| (_ BitVec 1))

(declare-const |c:NonTerminationSimple7.c@164@F@main@x?1!0&0#9| (_ BitVec 32))

(declare-const |goto_symex::guard?0!0&0#10| (_ BitVec 1))

(declare-const |c:NonTerminationSimple7.c@164@F@main@x?1!0&0#10| (_ BitVec 32))

(declare-const |goto_symex::guard?0!0&0#11| (_ BitVec 1))

(declare-const |c:NonTerminationSimple7.c@164@F@main@x?1!0&0#11| (_ BitVec 32))

(declare-const |goto_symex::guard?0!0&0#12| (_ BitVec 1))

(declare-const |c:NonTerminationSimple7.c@164@F@main@x?1!0&0#12| (_ BitVec 32))

(declare-const |goto_symex::guard?0!0&0#13| (_ BitVec 1))

(declare-const |c:NonTerminationSimple7.c@164@F@main@x?1!0&0#13| (_ BitVec 32))

(declare-const |goto_symex::guard?0!0&0#14| (_ BitVec 1))

(declare-const |c:NonTerminationSimple7.c@164@F@main@x?1!0&0#14| (_ BitVec 32))

(declare-const |goto_symex::guard?0!0&0#15| (_ BitVec 1))

(declare-const |c:NonTerminationSimple7.c@164@F@main@x?1!0&0#15| (_ BitVec 32))

(declare-const |goto_symex::guard?0!0&0#16| (_ BitVec 1))

(declare-const |c:NonTerminationSimple7.c@164@F@main@x?1!0&0#16| (_ BitVec 32))

(declare-const |goto_symex::guard?0!0&0#17| (_ BitVec 1))

(declare-const |c:NonTerminationSimple7.c@164@F@main@x?1!0&0#17| (_ BitVec 32))

(declare-const |goto_symex::guard?0!0&0#18| (_ BitVec 1))

(declare-const |c:NonTerminationSimple7.c@164@F@main@x?1!0&0#18| (_ BitVec 32))

(declare-const |goto_symex::guard?0!0&0#19| (_ BitVec 1))

(declare-const |c:NonTerminationSimple7.c@164@F@main@x?1!0&0#19| (_ BitVec 32))

(declare-const |goto_symex::guard?0!0&0#20| (_ BitVec 1))

(declare-const |c:NonTerminationSimple7.c@164@F@main@x?1!0&0#20| (_ BitVec 32))

(declare-const |goto_symex::guard?0!0&0#21| (_ BitVec 1))

(declare-const |c:NonTerminationSimple7.c@164@F@main@x?1!0&0#21| (_ BitVec 32))

(declare-const |goto_symex::guard?0!0&0#22| (_ BitVec 1))

(declare-const |c:NonTerminationSimple7.c@164@F@main@x?1!0&0#22| (_ BitVec 32))

(declare-const |goto_symex::guard?0!0&0#23| (_ BitVec 1))

(declare-const |c:NonTerminationSimple7.c@164@F@main@x?1!0&0#23| (_ BitVec 32))

(declare-const |goto_symex::guard?0!0&0#24| (_ BitVec 1))

(declare-const |c:NonTerminationSimple7.c@164@F@main@x?1!0&0#24| (_ BitVec 32))

(declare-const |goto_symex::guard?0!0&0#25| (_ BitVec 1))

(declare-const |c:NonTerminationSimple7.c@164@F@main@x?1!0&0#25| (_ BitVec 32))

(declare-const |goto_symex::guard?0!0&0#26| (_ BitVec 1))

(declare-const |c:NonTerminationSimple7.c@164@F@main@x?1!0&0#26| (_ BitVec 32))

(declare-const |goto_symex::guard?0!0&0#27| (_ BitVec 1))

(define-fun $e1 () (_ BitVec 1) 

 (bvand |goto_symex::guard?0!0&0#1| |goto_symex::guard?0!0&0#2|))

(define-fun $e2 () (_ BitVec 32) 

 (bvadd |c:NonTerminationSimple7.c@164@F@main@x?1!0&0#1| |c:NonTerminationSimple7.c@164@F@main@c?1!0&0#1|))

(define-fun $e3 () (_ BitVec 1) 

 ((_ extract 31 31) |c:NonTerminationSimple7.c@164@F@main@x?1!0&0#1|))

(define-fun $e4 () (_ BitVec 1) 

 ((_ extract 31 31) |c:NonTerminationSimple7.c@164@F@main@c?1!0&0#1|))

(define-fun $e5 () (_ BitVec 1) 

 ((_ extract 31 31) $e2))

(define-fun $e6 () (_ BitVec 1) 

 (bvand $e1 |goto_symex::guard?0!0&0#3|))

(define-fun $e7 () (_ BitVec 32) 

 (bvadd |c:NonTerminationSimple7.c@164@F@main@c?1!0&0#1| |c:NonTerminationSimple7.c@164@F@main@x?1!0&0#2|))

(define-fun $e8 () (_ BitVec 1) 

 ((_ extract 31 31) |c:NonTerminationSimple7.c@164@F@main@x?1!0&0#2|))

(define-fun $e9 () (_ BitVec 1) 

 ((_ extract 31 31) $e7))

(define-fun $e10 () (_ BitVec 1) 

 (bvand $e6 |goto_symex::guard?0!0&0#4|))

(define-fun $e11 () (_ BitVec 32) 

 (bvadd |c:NonTerminationSimple7.c@164@F@main@c?1!0&0#1| |c:NonTerminationSimple7.c@164@F@main@x?1!0&0#3|))

(define-fun $e12 () (_ BitVec 1) 

 ((_ extract 31 31) |c:NonTerminationSimple7.c@164@F@main@x?1!0&0#3|))

(define-fun $e13 () (_ BitVec 1) 

 ((_ extract 31 31) $e11))

(define-fun $e14 () (_ BitVec 1) 

 (bvand $e10 |goto_symex::guard?0!0&0#5|))

(define-fun $e15 () (_ BitVec 32) 

 (bvadd |c:NonTerminationSimple7.c@164@F@main@c?1!0&0#1| |c:NonTerminationSimple7.c@164@F@main@x?1!0&0#4|))

(define-fun $e16 () (_ BitVec 1) 

 ((_ extract 31 31) |c:NonTerminationSimple7.c@164@F@main@x?1!0&0#4|))

(define-fun $e17 () (_ BitVec 1) 

 ((_ extract 31 31) $e15))

(define-fun $e18 () (_ BitVec 1) 

 (bvand $e14 |goto_symex::guard?0!0&0#6|))

(define-fun $e19 () (_ BitVec 32) 

 (bvadd |c:NonTerminationSimple7.c@164@F@main@c?1!0&0#1| |c:NonTerminationSimple7.c@164@F@main@x?1!0&0#5|))

(define-fun $e20 () (_ BitVec 1) 

 ((_ extract 31 31) |c:NonTerminationSimple7.c@164@F@main@x?1!0&0#5|))

(define-fun $e21 () (_ BitVec 1) 

 ((_ extract 31 31) $e19))

(define-fun $e22 () (_ BitVec 1) 

 (bvand $e18 |goto_symex::guard?0!0&0#7|))

(define-fun $e23 () (_ BitVec 32) 

 (bvadd |c:NonTerminationSimple7.c@164@F@main@c?1!0&0#1| |c:NonTerminationSimple7.c@164@F@main@x?1!0&0#6|))

(define-fun $e24 () (_ BitVec 1) 

 ((_ extract 31 31) |c:NonTerminationSimple7.c@164@F@main@x?1!0&0#6|))

(define-fun $e25 () (_ BitVec 1) 

 ((_ extract 31 31) $e23))

(define-fun $e26 () (_ BitVec 1) 

 (bvand $e22 |goto_symex::guard?0!0&0#8|))

(define-fun $e27 () (_ BitVec 32) 

 (bvadd |c:NonTerminationSimple7.c@164@F@main@c?1!0&0#1| |c:NonTerminationSimple7.c@164@F@main@x?1!0&0#7|))

(define-fun $e28 () (_ BitVec 1) 

 ((_ extract 31 31) |c:NonTerminationSimple7.c@164@F@main@x?1!0&0#7|))

(define-fun $e29 () (_ BitVec 1) 

 ((_ extract 31 31) $e27))

(define-fun $e30 () (_ BitVec 1) 

 (bvand $e26 |goto_symex::guard?0!0&0#9|))

(define-fun $e31 () (_ BitVec 32) 

 (bvadd |c:NonTerminationSimple7.c@164@F@main@c?1!0&0#1| |c:NonTerminationSimple7.c@164@F@main@x?1!0&0#8|))

(define-fun $e32 () (_ BitVec 1) 

 ((_ extract 31 31) |c:NonTerminationSimple7.c@164@F@main@x?1!0&0#8|))

(define-fun $e33 () (_ BitVec 1) 

 ((_ extract 31 31) $e31))

(define-fun $e34 () (_ BitVec 1) 

 (bvand $e30 |goto_symex::guard?0!0&0#10|))

(define-fun $e35 () (_ BitVec 32) 

 (bvadd |c:NonTerminationSimple7.c@164@F@main@c?1!0&0#1| |c:NonTerminationSimple7.c@164@F@main@x?1!0&0#9|))

(define-fun $e36 () (_ BitVec 1) 

 ((_ extract 31 31) |c:NonTerminationSimple7.c@164@F@main@x?1!0&0#9|))

(define-fun $e37 () (_ BitVec 1) 

 ((_ extract 31 31) $e35))

(define-fun $e38 () (_ BitVec 1) 

 (bvand $e34 |goto_symex::guard?0!0&0#11|))

(define-fun $e39 () (_ BitVec 32) 

 (bvadd |c:NonTerminationSimple7.c@164@F@main@c?1!0&0#1| |c:NonTerminationSimple7.c@164@F@main@x?1!0&0#10|))

(define-fun $e40 () (_ BitVec 1) 

 ((_ extract 31 31) |c:NonTerminationSimple7.c@164@F@main@x?1!0&0#10|))

(define-fun $e41 () (_ BitVec 1) 

 ((_ extract 31 31) $e39))

(define-fun $e42 () (_ BitVec 1) 

 (bvand $e38 |goto_symex::guard?0!0&0#12|))

(define-fun $e43 () (_ BitVec 32) 

 (bvadd |c:NonTerminationSimple7.c@164@F@main@c?1!0&0#1| |c:NonTerminationSimple7.c@164@F@main@x?1!0&0#11|))

(define-fun $e44 () (_ BitVec 1) 

 ((_ extract 31 31) |c:NonTerminationSimple7.c@164@F@main@x?1!0&0#11|))

(define-fun $e45 () (_ BitVec 1) 

 ((_ extract 31 31) $e43))

(define-fun $e46 () (_ BitVec 1) 

 (bvand $e42 |goto_symex::guard?0!0&0#13|))

(define-fun $e47 () (_ BitVec 32) 

 (bvadd |c:NonTerminationSimple7.c@164@F@main@c?1!0&0#1| |c:NonTerminationSimple7.c@164@F@main@x?1!0&0#12|))

(define-fun $e48 () (_ BitVec 1) 

 ((_ extract 31 31) |c:NonTerminationSimple7.c@164@F@main@x?1!0&0#12|))

(define-fun $e49 () (_ BitVec 1) 

 ((_ extract 31 31) $e47))

(define-fun $e50 () (_ BitVec 1) 

 (bvand $e46 |goto_symex::guard?0!0&0#14|))

(define-fun $e51 () (_ BitVec 32) 

 (bvadd |c:NonTerminationSimple7.c@164@F@main@c?1!0&0#1| |c:NonTerminationSimple7.c@164@F@main@x?1!0&0#13|))

(define-fun $e52 () (_ BitVec 1) 

 ((_ extract 31 31) |c:NonTerminationSimple7.c@164@F@main@x?1!0&0#13|))

(define-fun $e53 () (_ BitVec 1) 

 ((_ extract 31 31) $e51))

(define-fun $e54 () (_ BitVec 1) 

 (bvand $e50 |goto_symex::guard?0!0&0#15|))

(define-fun $e55 () (_ BitVec 32) 

 (bvadd |c:NonTerminationSimple7.c@164@F@main@c?1!0&0#1| |c:NonTerminationSimple7.c@164@F@main@x?1!0&0#14|))

(define-fun $e56 () (_ BitVec 1) 

 ((_ extract 31 31) |c:NonTerminationSimple7.c@164@F@main@x?1!0&0#14|))

(define-fun $e57 () (_ BitVec 1) 

 ((_ extract 31 31) $e55))

(define-fun $e58 () (_ BitVec 1) 

 (bvand $e54 |goto_symex::guard?0!0&0#16|))

(define-fun $e59 () (_ BitVec 32) 

 (bvadd |c:NonTerminationSimple7.c@164@F@main@c?1!0&0#1| |c:NonTerminationSimple7.c@164@F@main@x?1!0&0#15|))

(define-fun $e60 () (_ BitVec 1) 

 ((_ extract 31 31) |c:NonTerminationSimple7.c@164@F@main@x?1!0&0#15|))

(define-fun $e61 () (_ BitVec 1) 

 ((_ extract 31 31) $e59))

(define-fun $e62 () (_ BitVec 1) 

 (bvand $e58 |goto_symex::guard?0!0&0#17|))

(define-fun $e63 () (_ BitVec 32) 

 (bvadd |c:NonTerminationSimple7.c@164@F@main@c?1!0&0#1| |c:NonTerminationSimple7.c@164@F@main@x?1!0&0#16|))

(define-fun $e64 () (_ BitVec 1) 

 ((_ extract 31 31) |c:NonTerminationSimple7.c@164@F@main@x?1!0&0#16|))

(define-fun $e65 () (_ BitVec 1) 

 ((_ extract 31 31) $e63))

(define-fun $e66 () (_ BitVec 1) 

 (bvand $e62 |goto_symex::guard?0!0&0#18|))

(define-fun $e67 () (_ BitVec 32) 

 (bvadd |c:NonTerminationSimple7.c@164@F@main@c?1!0&0#1| |c:NonTerminationSimple7.c@164@F@main@x?1!0&0#17|))

(define-fun $e68 () (_ BitVec 1) 

 ((_ extract 31 31) |c:NonTerminationSimple7.c@164@F@main@x?1!0&0#17|))

(define-fun $e69 () (_ BitVec 1) 

 ((_ extract 31 31) $e67))

(define-fun $e70 () (_ BitVec 1) 

 (bvand $e66 |goto_symex::guard?0!0&0#19|))

(define-fun $e71 () (_ BitVec 32) 

 (bvadd |c:NonTerminationSimple7.c@164@F@main@c?1!0&0#1| |c:NonTerminationSimple7.c@164@F@main@x?1!0&0#18|))

(define-fun $e72 () (_ BitVec 1) 

 ((_ extract 31 31) |c:NonTerminationSimple7.c@164@F@main@x?1!0&0#18|))

(define-fun $e73 () (_ BitVec 1) 

 ((_ extract 31 31) $e71))

(define-fun $e74 () (_ BitVec 1) 

 (bvand $e70 |goto_symex::guard?0!0&0#20|))

(define-fun $e75 () (_ BitVec 32) 

 (bvadd |c:NonTerminationSimple7.c@164@F@main@c?1!0&0#1| |c:NonTerminationSimple7.c@164@F@main@x?1!0&0#19|))

(define-fun $e76 () (_ BitVec 1) 

 ((_ extract 31 31) |c:NonTerminationSimple7.c@164@F@main@x?1!0&0#19|))

(define-fun $e77 () (_ BitVec 1) 

 ((_ extract 31 31) $e75))

(define-fun $e78 () (_ BitVec 1) 

 (bvand $e74 |goto_symex::guard?0!0&0#21|))

(define-fun $e79 () (_ BitVec 32) 

 (bvadd |c:NonTerminationSimple7.c@164@F@main@c?1!0&0#1| |c:NonTerminationSimple7.c@164@F@main@x?1!0&0#20|))

(define-fun $e80 () (_ BitVec 1) 

 ((_ extract 31 31) |c:NonTerminationSimple7.c@164@F@main@x?1!0&0#20|))

(define-fun $e81 () (_ BitVec 1) 

 ((_ extract 31 31) $e79))

(define-fun $e82 () (_ BitVec 1) 

 (bvand $e78 |goto_symex::guard?0!0&0#22|))

(define-fun $e83 () (_ BitVec 32) 

 (bvadd |c:NonTerminationSimple7.c@164@F@main@c?1!0&0#1| |c:NonTerminationSimple7.c@164@F@main@x?1!0&0#21|))

(define-fun $e84 () (_ BitVec 1) 

 ((_ extract 31 31) |c:NonTerminationSimple7.c@164@F@main@x?1!0&0#21|))

(define-fun $e85 () (_ BitVec 1) 

 ((_ extract 31 31) $e83))

(define-fun $e86 () (_ BitVec 1) 

 (bvand $e82 |goto_symex::guard?0!0&0#23|))

(define-fun $e87 () (_ BitVec 32) 

 (bvadd |c:NonTerminationSimple7.c@164@F@main@c?1!0&0#1| |c:NonTerminationSimple7.c@164@F@main@x?1!0&0#22|))

(define-fun $e88 () (_ BitVec 1) 

 ((_ extract 31 31) |c:NonTerminationSimple7.c@164@F@main@x?1!0&0#22|))

(define-fun $e89 () (_ BitVec 1) 

 ((_ extract 31 31) $e87))

(define-fun $e90 () (_ BitVec 1) 

 (bvand $e86 |goto_symex::guard?0!0&0#24|))

(define-fun $e91 () (_ BitVec 32) 

 (bvadd |c:NonTerminationSimple7.c@164@F@main@c?1!0&0#1| |c:NonTerminationSimple7.c@164@F@main@x?1!0&0#23|))

(define-fun $e92 () (_ BitVec 1) 

 ((_ extract 31 31) |c:NonTerminationSimple7.c@164@F@main@x?1!0&0#23|))

(define-fun $e93 () (_ BitVec 1) 

 ((_ extract 31 31) $e91))

(define-fun $e94 () (_ BitVec 1) 

 (bvand $e90 |goto_symex::guard?0!0&0#25|))

(define-fun $e95 () (_ BitVec 32) 

 (bvadd |c:NonTerminationSimple7.c@164@F@main@c?1!0&0#1| |c:NonTerminationSimple7.c@164@F@main@x?1!0&0#24|))

(define-fun $e96 () (_ BitVec 1) 

 ((_ extract 31 31) |c:NonTerminationSimple7.c@164@F@main@x?1!0&0#24|))

(define-fun $e97 () (_ BitVec 1) 

 ((_ extract 31 31) $e95))

(define-fun $e98 () (_ BitVec 1) 

 (bvand $e94 |goto_symex::guard?0!0&0#26|))

(define-fun $e99 () (_ BitVec 32) 

 (bvadd |c:NonTerminationSimple7.c@164@F@main@c?1!0&0#1| |c:NonTerminationSimple7.c@164@F@main@x?1!0&0#25|))

(define-fun $e100 () (_ BitVec 1) 

 ((_ extract 31 31) |c:NonTerminationSimple7.c@164@F@main@x?1!0&0#25|))

(define-fun $e101 () (_ BitVec 1) 

 ((_ extract 31 31) $e99))

(define-fun $e102 () (_ BitVec 1) 

 ((_ extract 31 31) |c:NonTerminationSimple7.c@164@F@main@x?1!0&0#26|))

(define-fun $e103 () (_ BitVec 1) 

 ((_ extract 31 31) 

  (bvadd |c:NonTerminationSimple7.c@164@F@main@c?1!0&0#1| |c:NonTerminationSimple7.c@164@F@main@x?1!0&0#26|)))

(assert 

 (= __ESBMC_ptr_obj_start_0 #b0000000000000000000000000000000000000000000000000000000000000000))

(assert 

 (= #b0000000000000000000000000000000000000000000000000000000000000000 __ESBMC_ptr_obj_end_0))

(assert 

 (= __ESBMC_ptr_obj_start_1 #b0000000000000000000000000000000000000000000000000000000000000001))

(assert 

 (= #b1111111111111111111111111111111111111111111111111111111111111111 __ESBMC_ptr_obj_end_1))

(assert 

 (= __ESBMC_ptr_obj_end_0 |smt_conv::__ESBMC_ptr_addr_range_0..end0|))

(assert 

 (= __ESBMC_ptr_obj_start_0 |smt_conv::__ESBMC_ptr_addr_range_0..start0|))

(assert 

 (= __ESBMC_ptr_obj_end_1 |smt_conv::__ESBMC_ptr_addr_range_1..end0|))

(assert 

 (= __ESBMC_ptr_obj_start_1 |smt_conv::__ESBMC_ptr_addr_range_1..start0|))

(assert 

 (= |smt_conv::smt_conv::collate_array_vals::3..end0| |smt_conv::smt_conv::collate_array_vals::4..end0|))

(assert 

 (= |smt_conv::smt_conv::collate_array_vals::3..start0| |smt_conv::smt_conv::collate_array_vals::4..start0|))

(assert 

 (= __ESBMC_ptr_obj_end_0 |smt_conv::smt_conv::collate_array_vals::7..end0|))

(assert 

 (= __ESBMC_ptr_obj_start_0 |smt_conv::smt_conv::collate_array_vals::7..start0|))

(assert 

 (= |c:NonTerminationSimple7.c@164@F@main@x?1!0&0#1| |nondet$symex::nondet100|))

(assert 

 (= |c:NonTerminationSimple7.c@164@F@main@c?1!0&0#1| |nondet$symex::nondet101|))

(assert 

 (= |goto_symex::guard?0!0&0#1| 

  (ite 

   (= #b00000000000000000000000000000000 |c:NonTerminationSimple7.c@164@F@main@c?1!0&0#1|) #b1 #b0)))

(assert 

 (= |goto_symex::guard?0!0&0#2| 

  (bvnot 

   (ite 

    (bvslt |c:NonTerminationSimple7.c@164@F@main@x?1!0&0#1| #b00000000000000000000000000000000) #b1 #b0))))

(assert 

 (= $e2 |c:NonTerminationSimple7.c@164@F@main@x?1!0&0#2|))

(assert 

 (= |goto_symex::guard?0!0&0#3| 

  (bvnot 

   (ite 

    (bvslt |c:NonTerminationSimple7.c@164@F@main@x?1!0&0#2| #b00000000000000000000000000000000) #b1 #b0))))

(assert 

 (= $e7 |c:NonTerminationSimple7.c@164@F@main@x?1!0&0#3|))

(assert 

 (= |goto_symex::guard?0!0&0#4| 

  (bvnot 

   (ite 

    (bvslt |c:NonTerminationSimple7.c@164@F@main@x?1!0&0#3| #b00000000000000000000000000000000) #b1 #b0))))

(assert 

 (= $e11 |c:NonTerminationSimple7.c@164@F@main@x?1!0&0#4|))

(assert 

 (= |goto_symex::guard?0!0&0#5| 

  (bvnot 

   (ite 

    (bvslt |c:NonTerminationSimple7.c@164@F@main@x?1!0&0#4| #b00000000000000000000000000000000) #b1 #b0))))

(assert 

 (= $e15 |c:NonTerminationSimple7.c@164@F@main@x?1!0&0#5|))

(assert 

 (= |goto_symex::guard?0!0&0#6| 

  (bvnot 

   (ite 

    (bvslt |c:NonTerminationSimple7.c@164@F@main@x?1!0&0#5| #b00000000000000000000000000000000) #b1 #b0))))

(assert 

 (= $e19 |c:NonTerminationSimple7.c@164@F@main@x?1!0&0#6|))

(assert 

 (= |goto_symex::guard?0!0&0#7| 

  (bvnot 

   (ite 

    (bvslt |c:NonTerminationSimple7.c@164@F@main@x?1!0&0#6| #b00000000000000000000000000000000) #b1 #b0))))

(assert 

 (= $e23 |c:NonTerminationSimple7.c@164@F@main@x?1!0&0#7|))

(assert 

 (= |goto_symex::guard?0!0&0#8| 

  (bvnot 

   (ite 

    (bvslt |c:NonTerminationSimple7.c@164@F@main@x?1!0&0#7| #b00000000000000000000000000000000) #b1 #b0))))

(assert 

 (= $e27 |c:NonTerminationSimple7.c@164@F@main@x?1!0&0#8|))

(assert 

 (= |goto_symex::guard?0!0&0#9| 

  (bvnot 

   (ite 

    (bvslt |c:NonTerminationSimple7.c@164@F@main@x?1!0&0#8| #b00000000000000000000000000000000) #b1 #b0))))

(assert 

 (= $e31 |c:NonTerminationSimple7.c@164@F@main@x?1!0&0#9|))

(assert 

 (= |goto_symex::guard?0!0&0#10| 

  (bvnot 

   (ite 

    (bvslt |c:NonTerminationSimple7.c@164@F@main@x?1!0&0#9| #b00000000000000000000000000000000) #b1 #b0))))

(assert 

 (= $e35 |c:NonTerminationSimple7.c@164@F@main@x?1!0&0#10|))

(assert 

 (= |goto_symex::guard?0!0&0#11| 

  (bvnot 

   (ite 

    (bvslt |c:NonTerminationSimple7.c@164@F@main@x?1!0&0#10| #b00000000000000000000000000000000) #b1 #b0))))

(assert 

 (= $e39 |c:NonTerminationSimple7.c@164@F@main@x?1!0&0#11|))

(assert 

 (= |goto_symex::guard?0!0&0#12| 

  (bvnot 

   (ite 

    (bvslt |c:NonTerminationSimple7.c@164@F@main@x?1!0&0#11| #b00000000000000000000000000000000) #b1 #b0))))

(assert 

 (= $e43 |c:NonTerminationSimple7.c@164@F@main@x?1!0&0#12|))

(assert 

 (= |goto_symex::guard?0!0&0#13| 

  (bvnot 

   (ite 

    (bvslt |c:NonTerminationSimple7.c@164@F@main@x?1!0&0#12| #b00000000000000000000000000000000) #b1 #b0))))

(assert 

 (= $e47 |c:NonTerminationSimple7.c@164@F@main@x?1!0&0#13|))

(assert 

 (= |goto_symex::guard?0!0&0#14| 

  (bvnot 

   (ite 

    (bvslt |c:NonTerminationSimple7.c@164@F@main@x?1!0&0#13| #b00000000000000000000000000000000) #b1 #b0))))

(assert 

 (= $e51 |c:NonTerminationSimple7.c@164@F@main@x?1!0&0#14|))

(assert 

 (= |goto_symex::guard?0!0&0#15| 

  (bvnot 

   (ite 

    (bvslt |c:NonTerminationSimple7.c@164@F@main@x?1!0&0#14| #b00000000000000000000000000000000) #b1 #b0))))

(assert 

 (= $e55 |c:NonTerminationSimple7.c@164@F@main@x?1!0&0#15|))

(assert 

 (= |goto_symex::guard?0!0&0#16| 

  (bvnot 

   (ite 

    (bvslt |c:NonTerminationSimple7.c@164@F@main@x?1!0&0#15| #b00000000000000000000000000000000) #b1 #b0))))

(assert 

 (= $e59 |c:NonTerminationSimple7.c@164@F@main@x?1!0&0#16|))

(assert 

 (= |goto_symex::guard?0!0&0#17| 

  (bvnot 

   (ite 

    (bvslt |c:NonTerminationSimple7.c@164@F@main@x?1!0&0#16| #b00000000000000000000000000000000) #b1 #b0))))

(assert 

 (= $e63 |c:NonTerminationSimple7.c@164@F@main@x?1!0&0#17|))

(assert 

 (= |goto_symex::guard?0!0&0#18| 

  (bvnot 

   (ite 

    (bvslt |c:NonTerminationSimple7.c@164@F@main@x?1!0&0#17| #b00000000000000000000000000000000) #b1 #b0))))

(assert 

 (= $e67 |c:NonTerminationSimple7.c@164@F@main@x?1!0&0#18|))

(assert 

 (= |goto_symex::guard?0!0&0#19| 

  (bvnot 

   (ite 

    (bvslt |c:NonTerminationSimple7.c@164@F@main@x?1!0&0#18| #b00000000000000000000000000000000) #b1 #b0))))

(assert 

 (= $e71 |c:NonTerminationSimple7.c@164@F@main@x?1!0&0#19|))

(assert 

 (= |goto_symex::guard?0!0&0#20| 

  (bvnot 

   (ite 

    (bvslt |c:NonTerminationSimple7.c@164@F@main@x?1!0&0#19| #b00000000000000000000000000000000) #b1 #b0))))

(assert 

 (= $e75 |c:NonTerminationSimple7.c@164@F@main@x?1!0&0#20|))

(assert 

 (= |goto_symex::guard?0!0&0#21| 

  (bvnot 

   (ite 

    (bvslt |c:NonTerminationSimple7.c@164@F@main@x?1!0&0#20| #b00000000000000000000000000000000) #b1 #b0))))

(assert 

 (= $e79 |c:NonTerminationSimple7.c@164@F@main@x?1!0&0#21|))

(assert 

 (= |goto_symex::guard?0!0&0#22| 

  (bvnot 

   (ite 

    (bvslt |c:NonTerminationSimple7.c@164@F@main@x?1!0&0#21| #b00000000000000000000000000000000) #b1 #b0))))

(assert 

 (= $e83 |c:NonTerminationSimple7.c@164@F@main@x?1!0&0#22|))

(assert 

 (= |goto_symex::guard?0!0&0#23| 

  (bvnot 

   (ite 

    (bvslt |c:NonTerminationSimple7.c@164@F@main@x?1!0&0#22| #b00000000000000000000000000000000) #b1 #b0))))

(assert 

 (= $e87 |c:NonTerminationSimple7.c@164@F@main@x?1!0&0#23|))

(assert 

 (= |goto_symex::guard?0!0&0#24| 

  (bvnot 

   (ite 

    (bvslt |c:NonTerminationSimple7.c@164@F@main@x?1!0&0#23| #b00000000000000000000000000000000) #b1 #b0))))

(assert 

 (= $e91 |c:NonTerminationSimple7.c@164@F@main@x?1!0&0#24|))

(assert 

 (= |goto_symex::guard?0!0&0#25| 

  (bvnot 

   (ite 

    (bvslt |c:NonTerminationSimple7.c@164@F@main@x?1!0&0#24| #b00000000000000000000000000000000) #b1 #b0))))

(assert 

 (= $e95 |c:NonTerminationSimple7.c@164@F@main@x?1!0&0#25|))

(assert 

 (= |goto_symex::guard?0!0&0#26| 

  (bvnot 

   (ite 

    (bvslt |c:NonTerminationSimple7.c@164@F@main@x?1!0&0#25| #b00000000000000000000000000000000) #b1 #b0))))

(assert 

 (= $e99 |c:NonTerminationSimple7.c@164@F@main@x?1!0&0#26|))

(assert 

 (= |goto_symex::guard?0!0&0#27| 

  (bvnot 

   (ite 

    (bvslt |c:NonTerminationSimple7.c@164@F@main@x?1!0&0#26| #b00000000000000000000000000000000) #b1 #b0))))

(assert (= 

 (bvnot 

  (bvand 

   (bvnot 

    (bvand |execution_statet::guard_exec?0!0| 

     (bvand 

      (bvand $e98 |goto_symex::guard?0!0&0#27|) 

      (bvnot 

       (bvand 

        (bvnot 

         (bvand 

          (bvnot $e103) 

          (bvand $e4 $e102))) 

        (bvnot 

         (bvand $e103 

          (bvand 

           (bvnot $e4) 

           (bvnot $e102))))))))) 

   (bvand 

    (bvnot 

     (bvand |execution_statet::guard_exec?0!0| 

      (bvand $e98 

       (bvnot 

        (bvand 

         (bvnot 

          (bvand 

           (bvnot $e101) 

           (bvand $e4 $e100))) 

         (bvnot 

          (bvand $e101 

           (bvand 

            (bvnot $e4) 

            (bvnot $e100))))))))) 

    (bvand 

     (bvnot 

      (bvand |execution_statet::guard_exec?0!0| 

       (bvand $e94 

        (bvnot 

         (bvand 

          (bvnot 

           (bvand 

            (bvnot $e97) 

            (bvand $e4 $e96))) 

          (bvnot 

           (bvand $e97 

            (bvand 

             (bvnot $e4) 

             (bvnot $e96))))))))) 

     (bvand 

      (bvnot 

       (bvand |execution_statet::guard_exec?0!0| 

        (bvand $e90 

         (bvnot 

          (bvand 

           (bvnot 

            (bvand 

             (bvnot $e93) 

             (bvand $e4 $e92))) 

           (bvnot 

            (bvand $e93 

             (bvand 

              (bvnot $e4) 

              (bvnot $e92))))))))) 

      (bvand 

       (bvnot 

        (bvand |execution_statet::guard_exec?0!0| 

         (bvand $e86 

          (bvnot 

           (bvand 

            (bvnot 

             (bvand 

              (bvnot $e89) 

              (bvand $e4 $e88))) 

            (bvnot 

             (bvand $e89 

              (bvand 

               (bvnot $e4) 

               (bvnot $e88))))))))) 

       (bvand 

        (bvnot 

         (bvand |execution_statet::guard_exec?0!0| 

          (bvand $e82 

           (bvnot 

            (bvand 

             (bvnot 

              (bvand 

               (bvnot $e85) 

               (bvand $e4 $e84))) 

             (bvnot 

              (bvand $e85 

               (bvand 

                (bvnot $e4) 

                (bvnot $e84))))))))) 

        (bvand 

         (bvnot 

          (bvand |execution_statet::guard_exec?0!0| 

           (bvand $e78 

            (bvnot 

             (bvand 

              (bvnot 

               (bvand 

                (bvnot $e81) 

                (bvand $e4 $e80))) 

              (bvnot 

               (bvand $e81 

                (bvand 

                 (bvnot $e4) 

                 (bvnot $e80))))))))) 

         (bvand 

          (bvnot 

           (bvand |execution_statet::guard_exec?0!0| 

            (bvand $e74 

             (bvnot 

              (bvand 

               (bvnot 

                (bvand 

                 (bvnot $e77) 

                 (bvand $e4 $e76))) 

               (bvnot 

                (bvand $e77 

                 (bvand 

                  (bvnot $e4) 

                  (bvnot $e76))))))))) 

          (bvand 

           (bvnot 

            (bvand |execution_statet::guard_exec?0!0| 

             (bvand $e70 

              (bvnot 

               (bvand 

                (bvnot 

                 (bvand 

                  (bvnot $e73) 

                  (bvand $e4 $e72))) 

                (bvnot 

                 (bvand $e73 

                  (bvand 

                   (bvnot $e4) 

                   (bvnot $e72))))))))) 

           (bvand 

            (bvnot 

             (bvand |execution_statet::guard_exec?0!0| 

              (bvand $e66 

               (bvnot 

                (bvand 

                 (bvnot 

                  (bvand 

                   (bvnot $e69) 

                   (bvand $e4 $e68))) 

                 (bvnot 

                  (bvand $e69 

                   (bvand 

                    (bvnot $e4) 

                    (bvnot $e68))))))))) 

            (bvand 

             (bvnot 

              (bvand |execution_statet::guard_exec?0!0| 

               (bvand $e62 

                (bvnot 

                 (bvand 

                  (bvnot 

                   (bvand 

                    (bvnot $e65) 

                    (bvand $e4 $e64))) 

                  (bvnot 

                   (bvand $e65 

                    (bvand 

                     (bvnot $e4) 

                     (bvnot $e64))))))))) 

             (bvand 

              (bvnot 

               (bvand |execution_statet::guard_exec?0!0| 

                (bvand $e58 

                 (bvnot 

                  (bvand 

                   (bvnot 

                    (bvand 

                     (bvnot $e61) 

                     (bvand $e4 $e60))) 

                   (bvnot 

                    (bvand $e61 

                     (bvand 

                      (bvnot $e4) 

                      (bvnot $e60))))))))) 

              (bvand 

               (bvnot 

                (bvand |execution_statet::guard_exec?0!0| 

                 (bvand $e54 

                  (bvnot 

                   (bvand 

                    (bvnot 

                     (bvand 

                      (bvnot $e57) 

                      (bvand $e4 $e56))) 

                    (bvnot 

                     (bvand $e57 

                      (bvand 

                       (bvnot $e4) 

                       (bvnot $e56))))))))) 

               (bvand 

                (bvnot 

                 (bvand |execution_statet::guard_exec?0!0| 

                  (bvand $e50 

                   (bvnot 

                    (bvand 

                     (bvnot 

                      (bvand 

                       (bvnot $e53) 

                       (bvand $e4 $e52))) 

                     (bvnot 

                      (bvand $e53 

                       (bvand 

                        (bvnot $e4) 

                        (bvnot $e52))))))))) 

                (bvand 

                 (bvnot 

                  (bvand |execution_statet::guard_exec?0!0| 

                   (bvand $e46 

                    (bvnot 

                     (bvand 

                      (bvnot 

                       (bvand 

                        (bvnot $e49) 

                        (bvand $e4 $e48))) 

                      (bvnot 

                       (bvand $e49 

                        (bvand 

                         (bvnot $e4) 

                         (bvnot $e48))))))))) 

                 (bvand 

                  (bvnot 

                   (bvand |execution_statet::guard_exec?0!0| 

                    (bvand $e42 

                     (bvnot 

                      (bvand 

                       (bvnot 

                        (bvand 

                         (bvnot $e45) 

                         (bvand $e4 $e44))) 

                       (bvnot 

                        (bvand $e45 

                         (bvand 

                          (bvnot $e4) 

                          (bvnot $e44))))))))) 

                  (bvand 

                   (bvnot 

                    (bvand |execution_statet::guard_exec?0!0| 

                     (bvand $e38 

                      (bvnot 

                       (bvand 

                        (bvnot 

                         (bvand 

                          (bvnot $e41) 

                          (bvand $e4 $e40))) 

                        (bvnot 

                         (bvand $e41 

                          (bvand 

                           (bvnot $e4) 

                           (bvnot $e40))))))))) 

                   (bvand 

                    (bvnot 

                     (bvand |execution_statet::guard_exec?0!0| 

                      (bvand $e34 

                       (bvnot 

                        (bvand 

                         (bvnot 

                          (bvand 

                           (bvnot $e37) 

                           (bvand $e4 $e36))) 

                         (bvnot 

                          (bvand $e37 

                           (bvand 

                            (bvnot $e4) 

                            (bvnot $e36))))))))) 

                    (bvand 

                     (bvnot 

                      (bvand |execution_statet::guard_exec?0!0| 

                       (bvand $e30 

                        (bvnot 

                         (bvand 

                          (bvnot 

                           (bvand 

                            (bvnot $e33) 

                            (bvand $e4 $e32))) 

                          (bvnot 

                           (bvand $e33 

                            (bvand 

                             (bvnot $e4) 

                             (bvnot $e32))))))))) 

                     (bvand 

                      (bvnot 

                       (bvand |execution_statet::guard_exec?0!0| 

                        (bvand $e26 

                         (bvnot 

                          (bvand 

                           (bvnot 

                            (bvand 

                             (bvnot $e29) 

                             (bvand $e4 $e28))) 

                           (bvnot 

                            (bvand $e29 

                             (bvand 

                              (bvnot $e4) 

                              (bvnot $e28))))))))) 

                      (bvand 

                       (bvnot 

                        (bvand |execution_statet::guard_exec?0!0| 

                         (bvand $e22 

                          (bvnot 

                           (bvand 

                            (bvnot 

                             (bvand 

                              (bvnot $e25) 

                              (bvand $e4 $e24))) 

                            (bvnot 

                             (bvand $e25 

                              (bvand 

                               (bvnot $e4) 

                               (bvnot $e24))))))))) 

                       (bvand 

                        (bvnot 

                         (bvand |execution_statet::guard_exec?0!0| 

                          (bvand $e18 

                           (bvnot 

                            (bvand 

                             (bvnot 

                              (bvand 

                               (bvnot $e21) 

                               (bvand $e4 $e20))) 

                             (bvnot 

                              (bvand $e21 

                               (bvand 

                                (bvnot $e4) 

                                (bvnot $e20))))))))) 

                        (bvand 

                         (bvnot 

                          (bvand |execution_statet::guard_exec?0!0| 

                           (bvand $e14 

                            (bvnot 

                             (bvand 

                              (bvnot 

                               (bvand 

                                (bvnot $e17) 

                                (bvand $e4 $e16))) 

                              (bvnot 

                               (bvand $e17 

                                (bvand 

                                 (bvnot $e4) 

                                 (bvnot $e16))))))))) 

                         (bvand 

                          (bvnot 

                           (bvand |execution_statet::guard_exec?0!0| 

                            (bvand $e10 

                             (bvnot 

                              (bvand 

                               (bvnot 

                                (bvand 

                                 (bvnot $e13) 

                                 (bvand $e4 $e12))) 

                               (bvnot 

                                (bvand $e13 

                                 (bvand 

                                  (bvnot $e4) 

                                  (bvnot $e12))))))))) 

                          (bvand 

                           (bvnot 

                            (bvand |execution_statet::guard_exec?0!0| 

                             (bvand $e1 

                              (bvnot 

                               (bvand 

                                (bvnot 

                                 (bvand 

                                  (bvnot $e5) 

                                  (bvand $e3 $e4))) 

                                (bvnot 

                                 (bvand $e5 

                                  (bvand 

                                   (bvnot $e3) 

                                   (bvnot $e4))))))))) 

                           (bvnot 

                            (bvand |execution_statet::guard_exec?0!0| 

                             (bvand $e6 

                              (bvnot 

                               (bvand 

                                (bvnot 

                                 (bvand 

                                  (bvnot $e9) 

                                  (bvand $e4 $e8))) 

                                (bvnot 

                                 (bvand $e9 

                                  (bvand 

                                   (bvnot $e4) 

                                   (bvnot $e8))))))))))))))))))))))))))))))))))) #b1))

(check-sat)

(exit)
